Minimize

Subject To
r_1: + x1 - 1.0 x9 = 0
r_2: - 0.6 x1 + x2 = 0
r_3: - 0.4 x1 + x3 = 0
r_4: - 1.0 x2 - 1.0 x3 + x4 = 0
r_5: - 1.0 x4 + x5 = 0
r_6: - 1.0 x5 + x6 = 0
r_7: - 1.0 x6 + x7 = 0
r_8: - 1.0 x7 + x8 = 0
r_9: - 1.0 x8 + x9 = 0
r_00: + x1 + x2 + x3 + x4 + x5 + x6 + x7 + x8 + x9 = 1
End